webassembly/ejemplos_dzn/15/folder15_json_69.dzn
TERM = { '.', 's(5)', 's(2)', 's(4)', 'in_1', 'local_0', 'local_1', 'in_2', 'in_4', 'in_3', 's(1)', 's(0)', 'in_5', 's(3)', 'in_0'};
null = '.';
s = 15;
n = 11;
ndeps = 7;
max_registers_sz = 5;
NR = 2;
registers = [|'local_0', 's(4)', |'local_1', 'in_4'|];
dependencies = [|'i32.load16_s_0', 'i32.store8_5', |'i32.store8_5', 'i32.store16_6', |'i32.store16_6', 'call[function_index(0)]_9', |'call[function_index(0)]_9', 'i32.load16_s_10', |'call[function_index(0)]_9', 'i32.load8_s_11', |'i32.load_3', 'i32.store8_5', |'i32.load16_u_4', 'i32.store8_5'|];
GET_ENUM = { GET1, GET2, GET3, GET4, GET5, GET6, GET7};
SET_ENUM = { SET1, SET2, SET3, SET4, SET5, SET6, SET7};
TEE_ENUM = { TEE1, TEE2, TEE3, TEE4, TEE5, TEE6, TEE7};
N = 9;
OP = { 'i32.add_0', 'call[function_index(0)]_9', 'i32.load16_s_0', 'i32.load_3', 'i32.load16_u_4', 'i32.store8_5', 'i32.store16_6', 'i32.load16_s_10', 'i32.load8_s_11' };
in_ops = [2, 1, 1, 1, 1, 2, 2, 1, 1 ];
out_ops = [1, 0, 1, 1, 1, 0, 0, 1, 1 ];
in1 = ['s(4)', 'in_4', 'in_0', 's(0)', 's(1)', 's(2)', 'in_2', 'in_4', 's(3)' ];
in2 = ['in_5', '.', '.', '.', '.', 'in_1', 'in_3', '.', '.' ];
in3 = ['.', '.', '.', '.', '.', '.', '.', '.', '.' ];
out1 = ['s(5)', '.', 's(0)', 's(1)', 's(2)', '.', '.', 's(3)', 's(4)' ];
out2 = ['.', '.', '.', '.', '.', '.', '.', '.', '.' ];
out3 = ['.', '.', '.', '.', '.', '.', '.', '.', '.' ];
comm = [true, false, false, false, false, false, false, false, false ];
gas = [1, 1, 1, 1, 1, 1, 1, 1, 1 ];
sz = [1, 1, 1, 1, 1, 1, 1, 1, 1 ];
stor = [false, true, false, false, false, true, true, false, false ];
lb = [ 1, 1, 1, 1, 1, 1, 1, 1, 1 ];
ub = [ 15, 15, 15, 15, 15, 15, 15, 15, 15 ];
startstack = [ 'in_0', 'in_1', 'in_2', 'in_3', 'in_4', 'in_5', null, null, null, null, null ];
endstack = [ 's(4)', 's(5)', null, null, null, null, null, null, null, null, null ];
